
Gurobi 11.0.2 (win64) logging started Fri Feb 28 12:14:17 2025

Set parameter LogFile to value "C:\Users\yshimane3\Documents\codes\dev-julia\TelescopeTasking.jl\scripts\solutions_JASS_slow\logs\log_STTP1_targetS2_E1_Gurobi.log"
Set parameter Method to value 0

Gurobi 11.0.2 (win64) logging started Fri Feb 28 12:14:28 2025

Set parameter LogFile to value "C:\Users\yshimane3\Documents\codes\dev-julia\TelescopeTasking.jl\scripts\solutions_JASS_slow\logs\log_STTP1_targetS2_E1_Gurobi.log"
Gurobi Optimizer version 11.0.2 build v11.0.2rc0 (win64 - Windows 11.0 (22621.2))

CPU model: 12th Gen Intel(R) Core(TM) i7-12700, instruction set [SSE2|AVX|AVX2]
Thread count: 12 physical cores, 20 logical processors, using up to 20 threads

Optimize a model with 3093642 rows, 4788 columns and 6187470 nonzeros
Model fingerprint: 0xcbb88290
Variable types: 0 continuous, 4788 integer (4788 binary)
Coefficient statistics:
  Matrix range     [1e+00, 1e+00]
  Objective range  [1e+00, 1e+00]
  Bounds range     [0e+00, 0e+00]
  RHS range        [1e+00, 2e+00]
Found heuristic solution: objective -0.0000000
Presolve removed 3059299 rows and 0 columns
Presolve time: 0.78s
Presolved: 34343 rows, 4788 columns, 68872 nonzeros
Variable types: 0 continuous, 4788 integer (4788 binary)
Found heuristic solution: objective 204.0000000

Root relaxation: objective 2.210833e+02, 958 iterations, 0.00 seconds (0.00 work units)

    Nodes    |    Current Node    |     Objective Bounds      |     Work
 Expl Unexpl |  Obj  Depth IntInf | Incumbent    BestBd   Gap | It/Node Time

     0     0  221.08333    0   23  204.00000  221.08333  8.37%     -    1s
H    0     0                     220.0000000  221.08333  0.49%     -    1s

Cutting planes:
  Gomory: 2
  Clique: 3
  Zero half: 1

Explored 1 nodes (1253 simplex iterations) in 1.64 seconds (1.31 work units)
Thread count was 20 (of 20 available processors)

Solution count 4: 220 204 87 -0 

Optimal solution found (tolerance 1.00e-04)
Best objective 2.200000000000e+02, best bound 2.200000000000e+02, gap 0.0000%

User-callback calls 398, time in user-callback 0.00 sec
